c 1 mp3
c 2 colour
c 3 high_resolution
c 4 calls
c 5 screen
c 6 GPS
c 7 media
c 8 basic
c 9 camera
c 10 MobilePhone
p cnf 10 19
10 0
5 -8 0
5 -2 0
5 -3 0
8 2 3 -5 0
-8 -2 0
-8 -3 0
-2 -3 0
7 -9 0
7 -1 0
9 1 -7 0
10 -4 0
10 -6 0
10 -5 0
10 -7 0
4 -10 0
5 -10 0
-6 -8 0
3 -9 0
